122     4       
18      17      20      26      
0       0       0       0       0       3       2       3       4       
2       1       0       0       0       3       5       6       8       
9       0       0       0       4       3       14      18      27      
9       0       0       0       7       3       11      15      63      
4       0       10      0       0       3       7       16      22      
5       0       2       0       0       3       12      23      30      
4       0       0       0       1       3       10      33      53      
2       0       0       0       1       3       9       13      52      
10      0       0       9       0       3       39      43      77      
3       0       0       0       10      3       41      74      89      
7       0       2       0       0       3       19      40      52      
8       1       0       0       0       3       28      31      44      
10      0       4       0       0       3       39      90      99      
8       0       0       0       3       3       21      36      87      
6       0       0       0       2       3       17      41      79      
7       0       0       5       0       3       20      31      32      
7       10      0       0       0       2       24      45      
3       0       8       0       0       3       75      101     102     
8       0       0       0       8       3       48      64      69      
5       5       0       0       0       3       36      51      91      
5       0       5       0       0       3       25      29      73      
6       10      0       0       0       3       27      32      49      
3       0       0       0       4       3       42      65      68      
1       0       10      0       0       3       37      49      87      
10      0       1       0       0       3       26      34      57      
5       0       0       1       0       3       30      47      83      
5       0       0       6       0       2       44      47      
4       0       0       0       3       3       37      56      88      
6       0       0       0       8       3       48      80      118     
6       0       1       0       0       1       94      
5       0       0       0       8       3       35      55      62      
5       3       0       0       0       3       37      51      118     
5       9       0       0       0       3       71      81      91      
3       0       0       5       0       1       78      
9       0       0       5       0       3       38      46      80      
1       0       0       0       1       2       42      65      
1       0       0       0       2       2       60      97      
1       0       0       0       1       3       64      82      88      
3       0       0       0       9       1       61      
6       0       0       0       8       3       71      72      93      
8       5       0       0       0       2       51      56      
5       0       0       0       6       3       57      67      106     
8       0       0       0       10      2       50      56      
4       7       0       0       0       2       73      100     
6       0       0       0       2       3       55      67      81      
4       0       3       0       0       3       49      66      94      
10      9       0       0       0       3       60      76      98      
2       6       0       0       0       2       54      93      
9       7       0       0       0       3       52      53      61      
2       0       0       0       1       3       70      84      85      
7       0       0       0       7       2       59      92      
4       0       0       4       0       2       54      72      
5       0       0       4       0       2       70      90      
10      0       0       0       10      1       104     
3       0       0       0       10      2       59      89      
6       7       0       0       0       3       57      75      83      
7       0       10      0       0       3       58      96      116     
4       0       0       10      0       2       86      104     
4       0       0       10      0       3       60      61      77      
7       0       0       5       0       2       68      119     
7       0       0       0       7       2       68      86      
9       0       0       10      0       3       66      94      114     
6       7       0       0       0       1       105     
3       0       0       3       0       3       70      75      96      
6       9       0       0       0       3       77      79      95      
5       2       0       0       0       1       103     
7       0       0       0       10      2       74      97      
9       7       0       0       0       2       95      105     
10      0       0       10      0       3       87      108     111     
9       2       0       0       0       2       72      115     
5       0       0       0       4       2       84      88      
2       8       0       0       0       3       74      76      83      
2       0       0       0       3       1       82      
9       0       0       0       8       1       121     
1       0       0       5       0       2       76      103     
4       0       0       7       0       3       95      107     110     
9       3       0       0       0       2       80      102     
8       0       0       6       0       2       82      98      
5       1       0       0       0       3       81      98      102     
7       0       9       0       0       1       86      
1       0       0       0       4       2       84      113     
4       0       5       0       0       2       92      101     
8       5       0       0       0       2       103     108     
7       5       0       0       0       2       97      99      
10      0       0       5       0       1       89      
6       0       0       0       10      2       93      113     
4       2       0       0       0       2       92      116     
1       8       0       0       0       1       100     
8       0       9       0       0       2       90      91      
5       0       1       0       0       3       101     106     109     
1       0       0       0       1       1       115     
1       0       8       0       0       1       121     
6       0       9       0       0       1       110     
4       0       0       0       2       2       96      99      
10      0       0       1       0       1       109     
4       0       0       0       7       1       112     
10      1       0       0       0       1       114     
10      0       5       0       0       2       104     106     
3       0       5       0       0       1       100     
1       3       0       0       0       2       108     111     
6       2       0       0       0       2       105     107     
2       0       0       0       2       1       112     
9       0       4       0       0       1       107     
2       0       7       0       0       2       109     120     
5       0       3       0       0       1       110     
2       0       0       0       7       2       114     117     
1       5       0       0       0       1       111     
7       0       0       0       10      1       117     
3       0       0       0       10      1       112     
4       0       2       0       0       1       120     
8       0       6       0       0       2       116     117     
2       0       5       0       0       1       113     
9       0       0       10      0       1       121     
9       0       2       0       0       1       115     
10      0       8       0       0       1       119     
1       0       0       0       3       1       120     
8       0       3       0       0       1       118     
6       3       0       0       0       1       119     
9       0       0       0       3       1       122     
8       0       0       0       3       1       122     
10      0       0       1       0       1       122     
0       0       0       0       0       0       